217,25
206,72
201,104
211,30
181,273
307,144
159,221
169,367
258,19
363,78
33,117
60,286
235,232
269,257
180,264
301,180
268,91
342,263
87,54
365,31
271,15
253,143
27,349
167,335
332,340
343,380
324,251
352,378
303,104
57,168
120,157
240,183
258,193
55,203
157,133
210,111
362,11
64,63
37,392
2,275
222,381
302,242
349,377
323,139
206,176
386,4
49,135
388,48
304,74
330,289
